(declare-sort a 0)

(declare-fun b (a a) a)
(declare-fun c () a)
(declare-fun d () a)
(declare-fun k () a)
(declare-fun e () a)
(declare-fun f () a)
(assert (= (b c c) c))
(assert (= (b c c) d))
(assert (or (= (b d d) e) (= (b f f) k)))
(assert (or (and (not (= (b e e) (b c e) c))) (and (not (= (b d k) d)) (= (b c k) c))))
(assert (or false (= (b c (b c e)) e) (= (b c (b c k)) k)))
(check-sat)
